100 275496
57 46 14 31 58 86 66 8 84 94 60 78 35 93 40 11 82 24 91 21 62 100 4 13 27 47 41 96 81 29 34 43 73 80 5 44 38 59 2 70 63 74 37 22 54 12 16 71 6 20 1 76 67 45 90 79 51 52 98 28 97 39 26 3 23 61 19 36 99 85 9 83 75 72 69 17 53 49 25 30 15 88 77 95 10 56 64 18 65 87 50 32 33 7 42 92 89 68 48 55 
